db/data/2998729803165471840220110280661461519709.z3.out
-------------------
2500.235482362
